<?xml version = "1.0" encoding="UTF-8" standalone="yes"?>
<CPLEXSolution version="1.2">
 <header
   problemName="cluster_small_cut_n5"
   objectiveValue="75.814671814671868"
   solutionTypeValue="1"
   solutionTypeString="basic"
   solutionStatusValue="1"
   solutionStatusString="optimal"
   solutionMethodString="dual"
   primalFeasible="1"
   dualFeasible="1"
   simplexIterations="1"
   writeLevel="1"/>
 <quality
   epRHS="9.9999999999999995e-07"
   epOpt="9.9999999999999995e-07"
   maxPrimalInfeas="0"
   maxDualInfeas="0"
   maxPrimalResidual="1.0658141036401503e-13"
   maxDualResidual="0"
   maxX="1.4787644787641909"
   maxPi="1.913127413127413"
   maxSlack="929.26640926640903"
   maxRedCost="146.97297297297297"
   kappa="225.37957439917835"/>
 <linearConstraints>
  <constraint name="c0" index="0" status="BS" slack="0.78764478764479229" dual="-0"/>
  <constraint name="c1" index="1" status="BS" slack="426.83011583011574" dual="-0"/>
  <constraint name="c2" index="2" status="BS" slack="818.64478764478758" dual="-0"/>
  <constraint name="c3" index="3" status="BS" slack="322.73745173745158" dual="-0"/>
  <constraint name="c4" index="4" status="BS" slack="929.26640926640903" dual="-0"/>
  <constraint name="c5" index="5" status="LL" slack="0" dual="-0"/>
  <constraint name="c6" index="6" status="BS" slack="73.254826254826028" dual="-0"/>
  <constraint name="c7" index="7" status="BS" slack="386.8532818532816" dual="-0"/>
  <constraint name="c8" index="8" status="BS" slack="118.65637065637048" dual="-0"/>
  <constraint name="c9" index="9" status="BS" slack="587.47490347490361" dual="-0"/>
  <constraint name="c10" index="10" status="BS" slack="680.25868725868725" dual="-0"/>
  <constraint name="c11" index="11" status="BS" slack="553.62934362934368" dual="-0"/>
  <constraint name="c12" index="12" status="BS" slack="704.7104247104246" dual="-0"/>
  <constraint name="c13" index="13" status="BS" slack="324.16602316602302" dual="-0"/>
  <constraint name="c14" index="14" status="BS" slack="675.64092664092675" dual="-0"/>
  <constraint name="cut_1" index="15" status="LL" slack="0" dual="1.913127413127413"/>
  <constraint name="cut_2" index="16" status="BS" slack="0.22393822393810581" dual="-0"/>
  <constraint name="cut_3" index="17" status="BS" slack="0.62162162162148604" dual="-0"/>
  <constraint name="cut_4" index="18" status="BS" slack="0.52895752895743442" dual="-0"/>
  <constraint name="cut_5" index="19" status="LL" slack="0" dual="0.81081081081081074"/>
 </linearConstraints>
 <variables>
  <variable name="x0" index="0" status="LL" value="0" reducedCost="-84.999999999999972"/>
  <variable name="x1" index="1" status="LL" value="0" reducedCost="-45.752895752895753"/>
  <variable name="x2" index="2" status="LL" value="0" reducedCost="-127.43050193050192"/>
  <variable name="x3" index="3" status="BS" value="0.74903474903474732" reducedCost="0"/>
  <variable name="x4" index="4" status="LL" value="0" reducedCost="-117.84169884169881"/>
  <variable name="x5" index="5" status="LL" value="0" reducedCost="-15.227799227799215"/>
  <variable name="x6" index="6" status="LL" value="0" reducedCost="-113.33397683397679"/>
  <variable name="x7" index="7" status="LL" value="0" reducedCost="-146.97297297297297"/>
  <variable name="x8" index="8" status="BS" value="0.78764478764479096" reducedCost="0"/>
  <variable name="x9" index="9" status="LL" value="0" reducedCost="-21.191119691119685"/>
  <variable name="x10" index="10" status="LL" value="0" reducedCost="-111.98841698841696"/>
  <variable name="x11" index="11" status="LL" value="0" reducedCost="-111.59459459459458"/>
  <variable name="s0" index="12" status="LL" value="0" reducedCost="0"/>
  <variable name="s1" index="13" status="LL" value="0" reducedCost="0"/>
  <variable name="s2" index="14" status="LL" value="0" reducedCost="0"/>
  <variable name="s3" index="15" status="LL" value="0" reducedCost="0"/>
  <variable name="s4" index="16" status="LL" value="0" reducedCost="0"/>
  <variable name="s5" index="17" status="BS" value="1.4787644787641909" reducedCost="0"/>
  <variable name="s6" index="18" status="LL" value="0" reducedCost="0"/>
  <variable name="s7" index="19" status="LL" value="0" reducedCost="0"/>
  <variable name="s8" index="20" status="LL" value="0" reducedCost="0"/>
  <variable name="s9" index="21" status="LL" value="0" reducedCost="0"/>
  <variable name="s10" index="22" status="LL" value="0" reducedCost="0"/>
  <variable name="s11" index="23" status="LL" value="0" reducedCost="0"/>
  <variable name="s12" index="24" status="LL" value="0" reducedCost="0"/>
  <variable name="s13" index="25" status="LL" value="0" reducedCost="0"/>
  <variable name="s14" index="26" status="LL" value="0" reducedCost="0"/>
 </variables>
 <objectiveValues>
  <objective index="0" name="" value="75.814671814671868"/>
 </objectiveValues>
</CPLEXSolution>
